; benchmark generated from python API
(set-info :status unknown)
(declare-fun DISJ_W_S2_R_S2 () Bool)
(declare-fun W_S2_V2 () Bool)
(declare-fun DISJ_W_S2_R_S1 () Bool)
(declare-fun R_E1_V4 () Bool)
(declare-fun W_S1_V4 () Bool)
(declare-fun R_E1_V5 () Bool)
(declare-fun W_S1_V5 () Bool)
(declare-fun W_S2_V5 () Bool)
(declare-fun W_S2_V3 () Bool)
(declare-fun W_S2_V1 () Bool)
(declare-fun R_S2_V4 () Bool)
(declare-fun R_S2_V5 () Bool)
(declare-fun R_S2_V2 () Bool)
(declare-fun R_S2_V3 () Bool)
(declare-fun R_S2_V1 () Bool)
(declare-fun R_S1_V4 () Bool)
(declare-fun R_S1_V5 () Bool)
(declare-fun R_S1_V2 () Bool)
(declare-fun R_S1_V3 () Bool)
(declare-fun R_S1_V1 () Bool)
(declare-fun R_E1_V2 () Bool)
(declare-fun DISJ_W_S2_R_E1 () Bool)
(declare-fun DISJ_W_S1_W_S2 () Bool)
(declare-fun R_E1_V3 () Bool)
(declare-fun DISJ_W_S1_R_S2 () Bool)
(declare-fun DISJ_W_S1_R_S1 () Bool)
(declare-fun W_S2_V4 () Bool)
(declare-fun W_S1_V3 () Bool)
(declare-fun W_S1_V2 () Bool)
(declare-fun W_S1_V1 () Bool)
(declare-fun R_E1_V1 () Bool)
(declare-fun DISJ_W_S1_R_E1 () Bool)
(assert
 (let (($x5487 (not (and (not W_S2_V2) DISJ_W_S2_R_S2))))
 (let (($x536 (not (and DISJ_W_S2_R_S1 DISJ_W_S2_R_S2))))
 (let (($x2653 (not (and W_S1_V4 R_E1_V4))))
 (let (($x4738 (not (and W_S1_V5 R_E1_V5))))
 (let (($x4913 (forall ((V3_0 Int) )(forall ((V2_0 Int) )(forall ((V5_0 Int) )(forall ((V4_0 Int) )(forall ((MW_S1_V1 Bool) )(forall ((MW_S1_V3 Bool) )(forall ((MW_S1_V2 Bool) )(forall ((MW_S1_V5 Bool) )(forall ((MW_S1_V4 Bool) )(forall ((MW_S2_V1 Bool) )(forall ((MW_S2_V3 Bool) )(forall ((MW_S2_V2 Bool) )(forall ((MW_S2_V5 Bool) )(forall ((MW_S2_V4 Bool) )(forall ((S1_V1_!2447 Int) )(forall ((S1_V1_!2457 Int) )(forall ((S1_V1_!2468 Int) )(forall ((S2_V5_!2455 Int) )(forall ((S2_V5_!2465 Int) )(forall ((S2_V5_!2477 Int) )(forall ((S2_V5_!2482 Int) )(forall ((S1_V3_!2448 Int) )(forall ((S1_V3_!2458 Int) )(forall ((S1_V3_!2469 Int) )(forall ((S1_V2_!2449 Int) )(forall ((S1_V2_!2459 Int) )(forall ((S1_V2_!2470 Int) )(forall ((E1_!2446 Int) )(forall ((E1_!2467 Int) )(forall ((E1_!2473 Int) )(forall ((S2_V4_!2456 Int) )(forall ((S2_V4_!2466 Int) )(forall ((S2_V4_!2478 Int) )(forall ((S2_V4_!2483 Int) )(forall ((S1_V5_!2450 Int) )(forall ((S1_V5_!2460 Int) )(forall ((S1_V5_!2471 Int) )(forall ((S2_V1_!2452 Int) )(forall ((S2_V1_!2462 Int) )(forall ((S2_V1_!2474 Int) )(forall ((S2_V1_!2479 Int) )(forall ((S1_V4_!2451 Int) )(forall ((S1_V4_!2461 Int) )(forall ((S1_V4_!2472 Int) )(forall ((S2_V2_!2454 Int) )(forall ((S2_V2_!2464 Int) )(forall ((S2_V2_!2476 Int) )(forall ((S2_V2_!2481 Int) )(forall ((S2_V3_!2453 Int) )(forall ((S2_V3_!2463 Int) )(forall ((S2_V3_!2475 Int) )(forall ((S2_V3_!2480 Int) )(let (($x3199 (= (ite MW_S2_V4 S2_V4_!2466 (ite MW_S1_V4 S1_V4_!2461 (ite MW_S2_V4 S2_V4_!2456 (ite MW_S1_V4 S1_V4_!2451 V4_0)))) (ite MW_S2_V4 S2_V4_!2483 (ite MW_S1_V4 S1_V4_!2472 V4_0)))))
 (let (($x938 (= (ite MW_S2_V5 S2_V5_!2465 (ite MW_S1_V5 S1_V5_!2460 (ite MW_S2_V5 S2_V5_!2455 (ite MW_S1_V5 S1_V5_!2450 V5_0)))) (ite MW_S2_V5 S2_V5_!2482 (ite MW_S1_V5 S1_V5_!2471 V5_0)))))
 (let ((?x826 (ite MW_S1_V2 S1_V2_!2470 V2_0)))
 (let ((?x3283 (ite MW_S2_V2 S2_V2_!2481 ?x826)))
 (let ((?x5851 (ite MW_S1_V2 S1_V2_!2449 V2_0)))
 (let ((?x5735 (ite MW_S2_V2 S2_V2_!2454 ?x5851)))
 (let ((?x2909 (ite MW_S1_V2 S1_V2_!2459 ?x5735)))
 (let ((?x4591 (ite MW_S2_V2 S2_V2_!2464 ?x2909)))
 (let (($x1781 (= (ite MW_S2_V3 S2_V3_!2463 (ite MW_S1_V3 S1_V3_!2458 (ite MW_S2_V3 S2_V3_!2453 (ite MW_S1_V3 S1_V3_!2448 V3_0)))) (ite MW_S2_V3 S2_V3_!2480 (ite MW_S1_V3 S1_V3_!2469 V3_0)))))
 (let ((?x3014 (ite MW_S2_V1 S2_V1_!2474 E1_!2473)))
 (let ((?x3563 (+ 1 ?x3014)))
 (let ((?x5400 (ite MW_S2_V1 S2_V1_!2479 ?x3563)))
 (let ((?x3417 (ite MW_S1_V1 S1_V1_!2447 E1_!2446)))
 (let ((?x824 (ite MW_S2_V1 S2_V1_!2452 ?x3417)))
 (let ((?x639 (+ 1 ?x824)))
 (let ((?x1773 (ite MW_S1_V1 S1_V1_!2457 ?x639)))
 (let ((?x1912 (ite MW_S2_V1 S2_V1_!2462 ?x1773)))
 (let (($x6016 (and (not (<= V2_0 E1_!2446)) (not (<= ?x5735 ?x639)) (>= ?x1912 (+ (- 1) ?x4591)) (not (<= V2_0 E1_!2467)) (>= (ite MW_S1_V1 S1_V1_!2468 E1_!2467) (+ (- 1) ?x826)) (not (<= ?x826 E1_!2473)) (not (<= (ite MW_S2_V2 S2_V2_!2476 ?x826) ?x3563)) (>= ?x5400 (+ (- 1) ?x3283)))))
 (let (($x530 (= S2_V3_!2475 S2_V3_!2480)))
 (let (($x3411 (not R_S2_V4)))
 (let (($x5550 (or $x3411 (= (ite MW_S1_V4 S1_V4_!2472 V4_0) (ite MW_S2_V4 S2_V4_!2478 (ite MW_S1_V4 S1_V4_!2472 V4_0))))))
 (let (($x2427 (not R_S2_V5)))
 (let (($x2641 (or $x2427 (= (ite MW_S1_V5 S1_V5_!2471 V5_0) (ite MW_S2_V5 S2_V5_!2477 (ite MW_S1_V5 S1_V5_!2471 V5_0))))))
 (let (($x1768 (not R_S2_V3)))
 (let (($x2022 (or $x1768 (= (ite MW_S1_V3 S1_V3_!2469 V3_0) (ite MW_S2_V3 S2_V3_!2475 (ite MW_S1_V3 S1_V3_!2469 V3_0))))))
 (let (($x117 (and (or (not R_S2_V1) (= E1_!2473 ?x3563)) $x2022 (or (not R_S2_V2) (= ?x826 (ite MW_S2_V2 S2_V2_!2476 ?x826))) $x2641 $x5550)))
 (let (($x2254 (not $x117)))
 (let (($x3185 (= S2_V3_!2475 S2_V3_!2463)))
 (let ((?x3994 (ite MW_S1_V4 S1_V4_!2451 V4_0)))
 (let ((?x3105 (ite MW_S2_V4 S2_V4_!2456 ?x3994)))
 (let ((?x4278 (ite MW_S1_V4 S1_V4_!2461 ?x3105)))
 (let ((?x4202 (ite MW_S1_V4 S1_V4_!2472 V4_0)))
 (let ((?x2987 (ite MW_S1_V5 S1_V5_!2450 V5_0)))
 (let ((?x5647 (ite MW_S2_V5 S2_V5_!2455 ?x2987)))
 (let ((?x3221 (ite MW_S1_V5 S1_V5_!2460 ?x5647)))
 (let ((?x2100 (ite MW_S1_V5 S1_V5_!2471 V5_0)))
 (let ((?x1555 (ite MW_S1_V3 S1_V3_!2448 V3_0)))
 (let ((?x4874 (ite MW_S2_V3 S2_V3_!2453 ?x1555)))
 (let ((?x1832 (ite MW_S1_V3 S1_V3_!2458 ?x4874)))
 (let ((?x248 (ite MW_S1_V3 S1_V3_!2469 V3_0)))
 (let (($x85 (and (or (not R_S2_V1) (= E1_!2473 ?x1773)) (or $x1768 (= ?x248 ?x1832)) (or (not R_S2_V2) (= ?x826 ?x2909)) (or $x2427 (= ?x2100 ?x3221)) (or $x3411 (= ?x4202 ?x4278)))))
 (let (($x3358 (not $x85)))
 (let (($x2556 (= S2_V3_!2475 S2_V3_!2453)))
 (let (($x4020 (and (or (not R_S2_V1) (= E1_!2473 ?x3417)) (or $x1768 (= ?x248 ?x1555)) (or (not R_S2_V2) (= ?x826 ?x5851)) (or $x2427 (= ?x2100 ?x2987)) (or $x3411 (= ?x4202 ?x3994)))))
 (let (($x1960 (not $x4020)))
 (let (($x4486 (= S2_V3_!2463 S2_V3_!2480)))
 (let (($x4412 (and (or (not R_S2_V1) (= ?x1773 ?x3563)) (or $x1768 (= ?x1832 (ite MW_S2_V3 S2_V3_!2475 ?x248))) (or (not R_S2_V2) (= ?x2909 (ite MW_S2_V2 S2_V2_!2476 ?x826))) (or $x2427 (= ?x3221 (ite MW_S2_V5 S2_V5_!2477 ?x2100))) (or $x3411 (= ?x4278 (ite MW_S2_V4 S2_V4_!2478 ?x4202))))))
 (let (($x5460 (not $x4412)))
 (let (($x1949 (= S2_V3_!2463 S2_V3_!2453)))
 (let (($x5917 (and (or (not R_S2_V1) (= ?x1773 ?x3417)) (or $x1768 (= ?x1832 ?x1555)) (or (not R_S2_V2) (= ?x2909 ?x5851)) (or $x2427 (= ?x3221 ?x2987)) (or $x3411 (= ?x4278 ?x3994)))))
 (let (($x4176 (not $x5917)))
 (let (($x5505 (= S2_V3_!2453 S2_V3_!2480)))
 (let (($x3882 (and (or (not R_S2_V1) (= ?x3417 ?x3563)) (or $x1768 (= ?x1555 (ite MW_S2_V3 S2_V3_!2475 ?x248))) (or (not R_S2_V2) (= ?x5851 (ite MW_S2_V2 S2_V2_!2476 ?x826))) (or $x2427 (= ?x2987 (ite MW_S2_V5 S2_V5_!2477 ?x2100))) (or $x3411 (= ?x3994 (ite MW_S2_V4 S2_V4_!2478 ?x4202))))))
 (let (($x593 (not $x3882)))
 (let (($x3637 (= S2_V2_!2481 S2_V2_!2476)))
 (let (($x2108 (and (or (not R_S2_V1) (= ?x3014 (+ (- 1) E1_!2473))) (or $x1768 (= (ite MW_S2_V3 S2_V3_!2475 ?x248) ?x248)) (or (not R_S2_V2) (= (ite MW_S2_V2 S2_V2_!2476 ?x826) ?x826)) (or $x2427 (= (ite MW_S2_V5 S2_V5_!2477 ?x2100) ?x2100)) (or $x3411 (= (ite MW_S2_V4 S2_V4_!2478 ?x4202) ?x4202)))))
 (let (($x4939 (not $x2108)))
 (let (($x2590 (= S2_V2_!2481 S2_V2_!2464)))
 (let (($x5706 (and (or (not R_S2_V1) (= ?x3014 (+ (- 1) ?x1773))) (or $x1768 (= (ite MW_S2_V3 S2_V3_!2475 ?x248) ?x1832)) (or (not R_S2_V2) (= (ite MW_S2_V2 S2_V2_!2476 ?x826) ?x2909)) (or $x2427 (= (ite MW_S2_V5 S2_V5_!2477 ?x2100) ?x3221)) (or $x3411 (= (ite MW_S2_V4 S2_V4_!2478 ?x4202) ?x4278)))))
 (let (($x1649 (= S2_V2_!2464 S2_V2_!2476)))
 (let (($x2482 (and (or (not R_S2_V1) (= ?x1773 E1_!2473)) (or $x1768 (= ?x1832 ?x248)) (or (not R_S2_V2) (= ?x2909 ?x826)) (or $x2427 (= ?x3221 ?x2100)) (or $x3411 (= ?x4278 ?x4202)))))
 (let (($x196 (not $x2482)))
 (let (($x4958 (= S2_V2_!2454 S2_V2_!2476)))
 (let (($x762 (and (or (not R_S2_V1) (= ?x3417 E1_!2473)) (or $x1768 (= ?x1555 ?x248)) (or (not R_S2_V2) (= ?x5851 ?x826)) (or $x2427 (= ?x2987 ?x2100)) (or $x3411 (= ?x3994 ?x4202)))))
 (let (($x1818 (not $x762)))
 (let (($x4103 (= S2_V2_!2454 S2_V2_!2464)))
 (let (($x4132 (and (or (not R_S2_V1) (= ?x3417 ?x1773)) (or $x1768 (= ?x1555 ?x1832)) (or (not R_S2_V2) (= ?x5851 ?x2909)) (or $x2427 (= ?x2987 ?x3221)) (or $x3411 (= ?x3994 ?x4278)))))
 (let (($x2531 (not $x4132)))
 (let (($x5178 (= S1_V4_!2472 S1_V4_!2461)))
 (let (($x3109 (not R_S1_V4)))
 (let (($x1527 (or $x3109 (= V4_0 ?x3105))))
 (let (($x1626 (not R_S1_V5)))
 (let (($x4789 (or $x1626 (= V5_0 ?x5647))))
 (let (($x4263 (not R_S1_V2)))
 (let (($x3379 (or $x4263 (= V2_0 ?x5735))))
 (let (($x3742 (not R_S1_V3)))
 (let (($x3057 (or $x3742 (= V3_0 ?x4874))))
 (let (($x1014 (not (and (or (not R_S1_V1) (= E1_!2467 ?x639)) $x3057 $x3379 $x4789 $x1527))))
 (let (($x346 (not (and (or (not R_S1_V1) (= E1_!2446 ?x639)) $x3057 $x3379 $x4789 $x1527))))
 (let (($x3287 (and (or (not R_S2_V1) (= ?x3014 (+ (- 1) ?x3417))) (or $x1768 (= (ite MW_S2_V3 S2_V3_!2475 ?x248) ?x1555)) (or (not R_S2_V2) (= (ite MW_S2_V2 S2_V2_!2476 ?x826) ?x5851)) (or $x2427 (= (ite MW_S2_V5 S2_V5_!2477 ?x2100) ?x2987)) (or $x3411 (= (ite MW_S2_V4 S2_V4_!2478 ?x4202) ?x3994)))))
 (let (($x5364 (and (or (not R_E1_V2) (= V2_0 ?x826)) (or (not R_E1_V5) (= V5_0 ?x2100)) (or (not R_E1_V4) (= V4_0 ?x4202)))))
 (let (($x874 (not $x5364)))
 (let (($x2245 (= E1_!2467 E1_!2446)))
 (let (($x5586 (or $x3109 (= ?x3105 V4_0))))
 (let (($x3690 (or $x1626 (= ?x5647 V5_0))))
 (let (($x4587 (or $x4263 (= ?x5735 V2_0))))
 (let (($x5943 (or $x3742 (= ?x4874 V3_0))))
 (let (($x2506 (and (or (not R_S1_V1) (= ?x824 (+ (- 1) E1_!2467))) $x5943 $x4587 $x3690 $x5586)))
 (let (($x1328 (not $x2506)))
 (let (($x5995 (= S1_V2_!2459 S1_V2_!2449)))
 (let (($x3748 (and (or (not R_S1_V1) (= ?x824 (+ (- 1) E1_!2446))) $x5943 $x4587 $x3690 $x5586)))
 (let (($x5336 (not $x3748)))
 (let (($x2632 (and (or $x5336 (= S1_V1_!2457 S1_V1_!2447)) (or (not (or (not R_S1_V1) $x2245)) (= S1_V1_!2468 S1_V1_!2447)) (or $x1014 (= S1_V1_!2468 S1_V1_!2457)) (or $x2531 (= S2_V5_!2455 S2_V5_!2465)) (or $x1818 (= S2_V5_!2455 S2_V5_!2477)) (or $x593 (= S2_V5_!2455 S2_V5_!2482)) (or $x196 (= S2_V5_!2465 S2_V5_!2477)) (or $x5460 (= S2_V5_!2465 S2_V5_!2482)) (or $x4939 (= S2_V5_!2482 S2_V5_!2477)) (or $x5336 (= S1_V3_!2458 S1_V3_!2448)) (or $x1328 (= S1_V3_!2458 S1_V3_!2469)) (or (not (or (not R_S1_V1) $x2245)) (= S1_V3_!2469 S1_V3_!2448)) (or $x5336 $x5995) (or $x1328 (= S1_V2_!2459 S1_V2_!2470)) (or (not (or (not R_S1_V1) $x2245)) (= S1_V2_!2470 S1_V2_!2449)) (or $x874 (= E1_!2446 E1_!2473)) $x2245 (or $x874 (= E1_!2467 E1_!2473)) (or $x4176 (= S2_V4_!2466 S2_V4_!2456)) (or $x196 (= S2_V4_!2466 S2_V4_!2478)) (or $x5460 (= S2_V4_!2466 S2_V4_!2483)) (or $x1960 (= S2_V4_!2478 S2_V4_!2456)) (or $x2254 (= S2_V4_!2478 S2_V4_!2483)) (or (not $x3287) (= S2_V4_!2483 S2_V4_!2456)) (or $x346 (= S1_V5_!2450 S1_V5_!2460)) (or (not (or (not R_S1_V1) $x2245)) (= S1_V5_!2471 S1_V5_!2450)) (or $x1014 (= S1_V5_!2471 S1_V5_!2460)) (or $x593 (= S2_V1_!2452 S2_V1_!2479)) (or $x4176 (= S2_V1_!2462 S2_V1_!2452)) (or $x5460 (= S2_V1_!2462 S2_V1_!2479)) (or $x1960 (= S2_V1_!2474 S2_V1_!2452)) (or $x3358 (= S2_V1_!2474 S2_V1_!2462)) (or $x2254 (= S2_V1_!2474 S2_V1_!2479)) (or $x346 (= S1_V4_!2451 S1_V4_!2461)) (or (not (or (not R_S1_V1) (= E1_!2446 E1_!2467))) (= S1_V4_!2451 S1_V4_!2472)) (or $x1014 $x5178) (or $x2531 $x4103) (or $x1818 $x4958) (or $x593 (= S2_V2_!2454 S2_V2_!2481)) (or $x196 $x1649) (or (not $x5706) $x2590) (or $x4939 $x3637) (or $x593 $x5505) (or $x4176 $x1949) (or $x5460 $x4486) (or $x1960 $x2556) (or $x3358 $x3185) (or $x2254 $x530) (not MW_S1_V1) (not MW_S1_V2) (or (not MW_S1_V5) W_S1_V5) (or (not MW_S1_V4) W_S1_V4) (or (not MW_S2_V1) W_S2_V1) (or (not MW_S2_V3) W_S2_V3) (or (not MW_S2_V2) W_S2_V2) (or (not MW_S2_V5) W_S2_V5))))
 (or (not $x2632) (not $x6016) (and (= ?x1912 ?x5400) $x1781 (= ?x4591 ?x3283) $x938 $x3199))))))))))))))))))))))))))))))))))))))))))))))))))))))))))))))))))))))))))))))))))))))))))))))))
 )
 )
 )
 )
 )
 )
 )
 )
 )
 )
 )
 )
 )
 )
 )
 )
 )
 )
 )
 )
 )
 )
 )
 )
 )
 )
 )
 )
 )
 )
 )
 )
 )
 )
 )
 )
 )
 )
 )
 )
 )
 )
 )
 )
 )
 )
 )
 )
 )
 )
 )
 ))
 (let (($x720 (not (or (and W_S2_V2 R_E1_V2) (and W_S2_V5 R_E1_V5) R_E1_V4))))
 (let (($x2836 (= DISJ_W_S2_R_E1 $x720)))
 (let (($x5938 (and W_S2_V5 R_S2_V5)))
 (let (($x498 (and W_S2_V2 R_S2_V2)))
 (let (($x5427 (and W_S2_V3 R_S2_V3)))
 (let (($x5961 (and W_S2_V1 R_S2_V1)))
 (let (($x3110 (= DISJ_W_S2_R_S2 (not (or $x5961 $x5427 $x498 $x5938 R_S2_V4)))))
 (let (($x5870 (and W_S2_V5 R_S1_V5)))
 (let (($x2102 (and W_S2_V2 R_S1_V2)))
 (let (($x2875 (and W_S2_V3 R_S1_V3)))
 (let (($x4414 (and W_S2_V1 R_S1_V1)))
 (let (($x909 (= DISJ_W_S2_R_S1 (not (or $x4414 $x2875 $x2102 $x5870 R_S1_V4)))))
 (let (($x2852 (= DISJ_W_S1_W_S2 (not (or W_S2_V3 (and W_S1_V5 W_S2_V5) W_S1_V4)))))
 (let (($x4838 (not R_E1_V3)))
 (let (($x5614 (not (or R_S2_V3 (and W_S1_V5 R_S2_V5) (and W_S1_V4 R_S2_V4)))))
 (let (($x4054 (= DISJ_W_S1_R_S2 $x5614)))
 (let (($x1493 (not (or R_S1_V3 (and W_S1_V5 R_S1_V5) (and W_S1_V4 R_S1_V4)))))
 (let (($x3930 (= DISJ_W_S1_R_S1 $x1493)))
 (let (($x3651 (not R_S1_V1)))
 (let (($x2500 (and $x3651 DISJ_W_S1_R_S1)))
 (let (($x2895 (not W_S2_V2)))
 (let (($x2311 (not W_S2_V1)))
 (let (($x952 (and $x2311 $x2895)))
 (let (($x3274 (and $x2895 DISJ_W_S2_R_S1 DISJ_W_S1_R_S1)))
 (let (($x1057 (or $x3274 $x952 $x2500)))
 (let (($x2563 (not W_S1_V2)))
 (let (($x1438 (not W_S1_V1)))
 (let (($x2185 (not R_E1_V1)))
 (let (($x390 (and DISJ_W_S1_R_E1 $x2185 $x1438 $x2563 $x1057 W_S1_V3 W_S2_V4 $x3930 $x4054 $x4838 $x2852 $x909 $x3110 $x2836 $x4913 $x4738 $x2653)))
 (and $x390 $x536 $x5487))))))))))))))))))))))))))))))))))))
(check-sat)
